Function: get_partitions took 2.0265579223632812e-05 seconds
Function: map_flows_partitions took 2.3126602172851562e-05 seconds
Building model with:
21 devices, 3 partitions and 20 flows
Using license file /home/anup/gurobi.lic
Academic license - for non-commercial use only
Function: MIP.add_frac_mem_var took 0.0006470680236816406 seconds
Function: MIP.add_coverage_constraints took 0.0010974407196044922 seconds
Function: MIP.add_accuracy_constraints took 0.0012576580047607422 seconds
Function: MIP.add_capacity_constraints took 0.002051115036010742 seconds
Changed value of parameter TimeLimit to 120.0
   Prev: inf  Min: 0.0  Max: inf  Default: inf
Changed value of parameter NonConvex to 2
   Prev: -1  Min: -1  Max: 2  Default: -1
--------------------------------------------------
Starting model update
Model update took: 5.7697296142578125e-05 s
--------------------------------------------------
Starting model optimize
Gurobi Optimizer version 9.0.0 build v9.0.0rc2 (linux64)
Optimize a model with 190 rows, 200 columns and 547 nonzeros
Model fingerprint: 0x3bc4f4e0
Model has 3 quadratic constraints
Model has 3 general constraints
Variable types: 135 continuous, 65 integer (63 binary)
Coefficient statistics:
  Matrix range     [1e-04, 1e+01]
  QMatrix range    [1e+00, 1e+00]
  QLMatrix range   [1e+00, 1e+00]
  Objective range  [1e+00, 1e+00]
  Bounds range     [1e+00, 3e+04]
  RHS range        [1e+00, 2e+01]

---------------------------------------------------------------------------
Multi-objectives: starting optimization with 2 objectives ... 
---------------------------------------------------------------------------

Multi-objectives: applying initial presolve ...
---------------------------------------------------------------------------

Presolve removed 116 rows and 116 columns
Presolve time: 0.00s
Presolved: 86 rows and 85 columns
---------------------------------------------------------------------------

Multi-objectives: optimize objective 1 (ns) ...
---------------------------------------------------------------------------

Presolve removed 70 rows and 70 columns
Presolve time: 0.00s
Presolved: 28 rows, 16 columns, 68 nonzeros
Presolved model has 1 SOS constraint(s)
Presolved model has 3 bilinear constraint(s)
Variable types: 11 continuous, 5 integer (2 binary)

Root relaxation: objective 1.020408e+01, 6 iterations, 0.00 seconds

    Nodes    |    Current Node    |     Objective Bounds      |     Work
 Expl Unexpl |  Obj  Depth IntInf | Incumbent    BestBd   Gap | It/Node Time

*    0     0               0      10.2040816   10.20408  0.00%     -    0s

Explored 0 nodes (6 simplex iterations) in 0.00 seconds
Thread count was 8 (of 8 available processors)

Solution count 1: 10.2041 

Optimal solution found (tolerance 1.00e-04)
Best objective 1.020408163265e+01, best bound 1.020408163265e+01, gap 0.0000%
---------------------------------------------------------------------------

Multi-objectives: optimize objective 2 (res) ...
---------------------------------------------------------------------------


Loaded user MIP start with objective 87.124

Presolve removed 67 rows and 65 columns
Presolve time: 0.00s
Presolved: 20 rows, 20 columns, 40 nonzeros
Found heuristic solution: objective 81.4160156
Variable types: 0 continuous, 20 integer (20 binary)

Root relaxation: objective 7.856201e+01, 18 iterations, 0.00 seconds

    Nodes    |    Current Node    |     Objective Bounds      |     Work
 Expl Unexpl |  Obj  Depth IntInf | Incumbent    BestBd   Gap | It/Node Time

*    0     0               0      78.5620117   78.56201  0.00%     -    0s

Explored 0 nodes (18 simplex iterations) in 0.01 seconds
Thread count was 8 (of 8 available processors)

Solution count 3: 78.562 81.416 87.124 

Optimal solution found (tolerance 1.00e-04)
Best objective 7.856201171875e+01, best bound 7.856201171875e+01, gap 0.0000%

---------------------------------------------------------------------------
Multi-objectives: solved in 0.01 seconds, solution count 3

Model optimize took: 0.006606340408325195 seconds
--------------------------------------------------

Solution quality statistics for model Netmon :
  Maximum violation:
    Bound       : 0.00000000e+00
    Constraint  : 0.00000000e+00
    Integrality : 0.00000000e+00

Throughput: 98.0 Mpps, ns per packet: 10.204081632653061
Resources: 78.56201171875
Used Cores: 7.0, Total CPUS: 1, Switch Memory: 50.9765625

Sketch (0) (cm: eps0: 0.00625, del0: 0.05, min_mem: 1.69921875)
Par: 1, Rows: 1
(0.000,18)    (1.000,3)    (0.000,8)    (0.000,14)    (1.000,19)    (0.000,4)    (1.000,9)    (1.000,15)    (0.000,20)    (1.000,5)    (0.000,10)    (0.000,0)    (0.000,6)    (1.000,11)    (0.000,16)    (1.000,1)    (1.000,7)    (0.000,12)    (1.000,17)    (0.000,2)    (1.000,13)    
Total frac: 10.000
Par: 2, Rows: 1
(1.000,12)    (0.000,9)    (1.000,2)    (0.000,15)    (0.000,5)    (1.000,18)    (1.000,8)    (1.000,14)    (0.000,11)    (1.000,4)    (0.000,1)    (0.000,7)    (0.000,20)    (0.000,17)    (1.000,10)    (1.000,0)    (0.000,13)    (1.000,6)    (0.000,3)    (1.000,16)    (0.000,19)    
Total frac: 10.000
Par: 3, Rows: 1
(1.000,11)    (0.000,16)    (0.000,6)    (1.000,7)    (1.000,1)    (0.000,12)    (1.000,17)    (0.000,2)    (1.000,3)    (1.000,13)    (0.000,8)    (0.000,18)    (1.000,19)    (0.000,4)    (0.000,14)    (1.000,15)    (1.000,9)    (0.000,20)    (1.000,5)    (-0.000,0)    (-0.000,10)    
Total frac: 10.000

Device (0) P4_0:
Rows total: 1.0
Mem total: 1.69921875
Throughput: 148.0

Device (1) P4_1:
Rows total: 2.0
Mem total: 3.3984375
Throughput: 148.0

Device (2) P4_2:
Rows total: 1.0
Mem total: 1.69921875
Throughput: 148.0

Device (3) P4_3:
Rows total: 2.0
Mem total: 3.3984375
Throughput: 148.0

Device (4) P4_4:
Rows total: 1.0
Mem total: 1.69921875
Throughput: 148.0

Device (5) P4_5:
Rows total: 2.0
Mem total: 3.3984375
Throughput: 148.0

Device (6) P4_6:
Rows total: 1.0
Mem total: 1.69921875
Throughput: 148.0

Device (7) P4_7:
Rows total: 2.0
Mem total: 3.3984375
Throughput: 148.0

Device (8) P4_8:
Rows total: 1.0
Mem total: 1.69921875
Throughput: 148.0

Device (9) P4_9:
Rows total: 2.0
Mem total: 3.3984375
Throughput: 148.0

Device (10) P4_10:
Rows total: 1.0
Mem total: 1.69921875
Throughput: 148.0

Device (11) P4_11:
Rows total: 2.0
Mem total: 3.3984375
Throughput: 148.0

Device (12) P4_12:
Rows total: 1.0
Mem total: 1.69921875
Throughput: 148.0

Device (13) P4_13:
Rows total: 2.0
Mem total: 3.3984375
Throughput: 148.0

Device (14) P4_14:
Rows total: 1.0
Mem total: 1.69921875
Throughput: 148.0

Device (15) P4_15:
Rows total: 2.0
Mem total: 3.3984375
Throughput: 148.0

Device (16) P4_16:
Rows total: 1.0
Mem total: 1.69921875
Throughput: 148.0

Device (17) P4_17:
Rows total: 2.0
Mem total: 3.3984375
Throughput: 148.0

Device (18) P4_18:
Rows total: 1.0
Mem total: 1.69921875
Throughput: 148.0

Device (19) P4_19:
Rows total: 2.0
Mem total: 3.3984375
Throughput: 148.0

Device (20) CPU_1:
cores_sketch: 0.0, cores_dpdk: 7.0
Rows total: -0.0
Mem total: 0.0
Throughput: 98.0
--------------------------------------------------
Function: MIP.solve took 0.022518634796142578 seconds
Function: solve took 0.02300429344177246 seconds
